; benchmark generated from python API
(set-info :status unknown)
(declare-datatypes ((RealState 0)) (((RMk1 (rval1 Real)) (RMk2 (rval2 Real)))))
 (declare-fun xuscore2dollarskuscore17 () Real)
(declare-fun t13uscore0dollarskuscore2 () Real)
(declare-fun yuscore2dollarskuscore25 () Real)
(declare-fun stuscore2dollarskuscore25 () Real)
(assert
 (let (($x137 (exists ((ts13uscore2_st RealState) (val!104 Real) )(let (($x113 (<= (+ (* (- 2.0) t13uscore0dollarskuscore2) yuscore2dollarskuscore25) (+ 10.0 (+ t13uscore0dollarskuscore2 xuscore2dollarskuscore17)))))
 (let (($x226 (= stuscore2dollarskuscore25 3.0)))
 (let (($x74 (or $x226 $x113)))
 (let (($x199 (<= yuscore2dollarskuscore25 (+ 10.0 xuscore2dollarskuscore17))))
 (let (($x125 (<= yuscore2dollarskuscore25 12.0)))
 (let (($x77 (>= yuscore2dollarskuscore25 1.0)))
 (let (($x163 (= stuscore2dollarskuscore25 2.0)))
 (let (($x90 (< yuscore2dollarskuscore25 5.0)))
 (let (($x172 (>= t13uscore0dollarskuscore2 0.0)))
 (let (($x116 (and (<= 0.0 (rval2 ts13uscore2_st)) (<= (rval2 ts13uscore2_st) t13uscore0dollarskuscore2))))
 (let (($x89 (=> $x116 (>= (+ (* (- 2.0) (rval2 ts13uscore2_st)) yuscore2dollarskuscore25) 5.0))))
 (let (($x158 (= stuscore2dollarskuscore25 1.0)))
 (let (($x92 (and (and (and (and (and (and $x158 $x89) $x172) $x90) $x163) $x77) $x125)))
 (let (($x94 (not (= ts13uscore2_st (RMk1 val!104)))))
 (and $x94 (=> (and $x92 $x199) $x74)))))))))))))))))
 ))
 (not $x137)))
(check-sat)
